NAME : D361-09k
COMMENT : Golden et al., 1997                     
TYPE : DCVRP               
DIMENSION :    361
EDGE_WEIGHT_TYPE : EUC_2D
CAPACITY :    900
DISTANCE :   1300
SERVICE_TIME :      0
VEHICLES :      9
NODE_COORD_TYPE : TWOD_COORDS
NODE_COORD_SECTION
    1   30.0000    0.0000
    2   29.5442    5.2094
    3   28.1908   10.2606
    4   25.9808   15.0000
    5   22.9813   19.2836
    6   19.2836   22.9813
    7   15.0000   25.9808
    8   10.2606   28.1908
    9    5.2094   29.5442
   10    0.0000   30.0000
   11   -5.2094   29.5442
   12  -10.2606   28.1908
   13  -15.0000   25.9808
   14  -19.2836   22.9813
   15  -22.9813   19.2836
   16  -25.9808   15.0000
   17  -28.1908   10.2606
   18  -29.5442    5.2094
   19  -30.0000    0.0000
   20  -29.5442   -5.2094
   21  -28.1908  -10.2606
   22  -25.9808  -15.0000
   23  -22.9813  -19.2836
   24  -19.2836  -22.9813
   25  -15.0000  -25.9808
   26  -10.2606  -28.1908
   27   -5.2094  -29.5442
   28    0.0000  -30.0000
   29    5.2094  -29.5442
   30   10.2606  -28.1908
   31   15.0000  -25.9808
   32   19.2836  -22.9813
   33   22.9813  -19.2836
   34   25.9808  -15.0000
   35   28.1908  -10.2606
   36   29.5442   -5.2094
   37   60.0000    0.0000
   38   59.0885   10.4189
   39   56.3816   20.5212
   40   51.9615   30.0000
   41   45.9627   38.5673
   42   38.5673   45.9627
   43   30.0000   51.9615
   44   20.5212   56.3816
   45   10.4189   59.0885
   46    0.0000   60.0000
   47  -10.4189   59.0885
   48  -20.5212   56.3816
   49  -30.0000   51.9615
   50  -38.5673   45.9627
   51  -45.9627   38.5673
   52  -51.9615   30.0000
   53  -56.3816   20.5212
   54  -59.0885   10.4189
   55  -60.0000    0.0000
   56  -59.0885  -10.4189
   57  -56.3816  -20.5212
   58  -51.9615  -30.0000
   59  -45.9627  -38.5673
   60  -38.5673  -45.9627
   61  -30.0000  -51.9615
   62  -20.5212  -56.3816
   63  -10.4189  -59.0885
   64    0.0000  -60.0000
   65   10.4189  -59.0885
   66   20.5212  -56.3816
   67   30.0000  -51.9615
   68   38.5673  -45.9627
   69   45.9627  -38.5672
   70   51.9615  -30.0000
   71   56.3816  -20.5212
   72   59.0885  -10.4189
   73   90.0000    0.0000
   74   88.6327   15.6283
   75   84.5723   30.7818
   76   77.9423   45.0000
   77   68.9440   57.8509
   78   57.8509   68.9440
   79   45.0000   77.9423
   80   30.7818   84.5723
   81   15.6283   88.6327
   82    0.0000   90.0000
   83  -15.6283   88.6327
   84  -30.7818   84.5723
   85  -45.0000   77.9423
   86  -57.8509   68.9440
   87  -68.9440   57.8509
   88  -77.9423   45.0000
   89  -84.5723   30.7818
   90  -88.6327   15.6283
   91  -90.0000    0.0000
   92  -88.6327  -15.6283
   93  -84.5723  -30.7818
   94  -77.9423  -45.0000
   95  -68.9440  -57.8509
   96  -57.8509  -68.9440
   97  -45.0000  -77.9423
   98  -30.7818  -84.5723
   99  -15.6283  -88.6327
  100    0.0000  -90.0000
  101   15.6283  -88.6327
  102   30.7818  -84.5723
  103   45.0000  -77.9423
  104   57.8509  -68.9440
  105   68.9440  -57.8509
  106   77.9423  -45.0000
  107   84.5723  -30.7818
  108   88.6327  -15.6283
  109  120.0000    0.0000
  110  118.1769   20.8378
  111  112.7631   41.0424
  112  103.9230   60.0000
  113   91.9253   77.1345
  114   77.1345   91.9253
  115   60.0000  103.9230
  116   41.0424  112.7631
  117   20.8378  118.1769
  118    0.0000  120.0000
  119  -20.8378  118.1769
  120  -41.0424  112.7631
  121  -60.0000  103.9230
  122  -77.1345   91.9253
  123  -91.9253   77.1345
  124 -103.9230   60.0000
  125 -112.7631   41.0424
  126 -118.1769   20.8378
  127 -120.0000    0.0000
  128 -118.1769  -20.8378
  129 -112.7631  -41.0424
  130 -103.9230  -60.0000
  131  -91.9253  -77.1345
  132  -77.1345  -91.9253
  133  -60.0000 -103.9231
  134  -41.0424 -112.7631
  135  -20.8378 -118.1769
  136    0.0000 -120.0000
  137   20.8378 -118.1769
  138   41.0424 -112.7631
  139   60.0000 -103.9230
  140   77.1345  -91.9253
  141   91.9253  -77.1345
  142  103.9231  -60.0000
  143  112.7631  -41.0424
  144  118.1769  -20.8378
  145  150.0000    0.0000
  146  147.7212   26.0472
  147  140.9539   51.3030
  148  129.9038   75.0000
  149  114.9067   96.4181
  150   96.4181  114.9067
  151   75.0000  129.9038
  152   51.3030  140.9539
  153   26.0472  147.7212
  154    0.0000  150.0000
  155  -26.0472  147.7212
  156  -51.3030  140.9539
  157  -75.0000  129.9038
  158  -96.4182  114.9067
  159 -114.9067   96.4181
  160 -129.9038   75.0000
  161 -140.9539   51.3030
  162 -147.7212   26.0472
  163 -150.0000    0.0000
  164 -147.7212  -26.0472
  165 -140.9539  -51.3030
  166 -129.9038  -75.0000
  167 -114.9067  -96.4182
  168  -96.4181 -114.9067
  169  -75.0000 -129.9038
  170  -51.3030 -140.9539
  171  -26.0472 -147.7212
  172    0.0000 -150.0000
  173   26.0472 -147.7212
  174   51.3030 -140.9539
  175   75.0000 -129.9038
  176   96.4182 -114.9067
  177  114.9067  -96.4181
  178  129.9038  -75.0000
  179  140.9539  -51.3030
  180  147.7212  -26.0472
  181  180.0000    0.0000
  182  177.2654   31.2567
  183  169.1447   61.5636
  184  155.8846   90.0000
  185  137.8880  115.7018
  186  115.7018  137.8880
  187   90.0000  155.8846
  188   61.5636  169.1447
  189   31.2567  177.2654
  190    0.0000  180.0000
  191  -31.2567  177.2654
  192  -61.5636  169.1447
  193  -90.0000  155.8846
  194 -115.7018  137.8880
  195 -137.8880  115.7018
  196 -155.8846   90.0000
  197 -169.1447   61.5636
  198 -177.2654   31.2567
  199 -180.0000    0.0000
  200 -177.2654  -31.2567
  201 -169.1447  -61.5636
  202 -155.8846  -90.0000
  203 -137.8880 -115.7018
  204 -115.7018 -137.8880
  205  -90.0000 -155.8846
  206  -61.5636 -169.1447
  207  -31.2566 -177.2654
  208    0.0000 -180.0000
  209   31.2567 -177.2654
  210   61.5636 -169.1447
  211   90.0000 -155.8846
  212  115.7018 -137.8880
  213  137.8880 -115.7018
  214  155.8846  -90.0000
  215  169.1447  -61.5636
  216  177.2654  -31.2566
  217  210.0000    0.0000
  218  206.8096   36.4661
  219  197.3354   71.8242
  220  181.8653  105.0000
  221  160.8693  134.9854
  222  134.9854  160.8693
  223  105.0000  181.8653
  224   71.8242  197.3354
  225   36.4661  206.8096
  226    0.0000  210.0000
  227  -36.4661  206.8096
  228  -71.8242  197.3354
  229 -105.0000  181.8653
  230 -134.9854  160.8693
  231 -160.8693  134.9854
  232 -181.8653  105.0000
  233 -197.3354   71.8242
  234 -206.8096   36.4661
  235 -210.0000    0.0000
  236 -206.8096  -36.4661
  237 -197.3354  -71.8242
  238 -181.8653 -105.0000
  239 -160.8693 -134.9854
  240 -134.9854 -160.8694
  241 -105.0000 -181.8653
  242  -71.8242 -197.3355
  243  -36.4661 -206.8096
  244    0.0000 -210.0000
  245   36.4661 -206.8096
  246   71.8243 -197.3354
  247  105.0000 -181.8653
  248  134.9854 -160.8693
  249  160.8694 -134.9854
  250  181.8654 -105.0000
  251  197.3355  -71.8242
  252  206.8096  -36.4661
  253  240.0000    0.0000
  254  236.3539   41.6756
  255  225.5262   82.0848
  256  207.8461  120.0000
  257  183.8507  154.2690
  258  154.2690  183.8507
  259  120.0000  207.8461
  260   82.0848  225.5262
  261   41.6756  236.3539
  262    0.0000  240.0000
  263  -41.6756  236.3539
  264  -82.0848  225.5262
  265 -120.0000  207.8461
  266 -154.2690  183.8507
  267 -183.8507  154.2690
  268 -207.8461  120.0000
  269 -225.5262   82.0848
  270 -236.3539   41.6755
  271 -240.0000    0.0000
  272 -236.3539  -41.6756
  273 -225.5262  -82.0849
  274 -207.8461 -120.0000
  275 -183.8506 -154.2690
  276 -154.2690 -183.8507
  277 -120.0000 -207.8461
  278  -82.0848 -225.5262
  279  -41.6755 -236.3539
  280    0.0000 -240.0000
  281   41.6756 -236.3539
  282   82.0849 -225.5262
  283  120.0000 -207.8461
  284  154.2691 -183.8506
  285  183.8507 -154.2690
  286  207.8461 -120.0000
  287  225.5262  -82.0848
  288  236.3539  -41.6755
  289  270.0000    0.0000
  290  265.8981   46.8850
  291  253.7170   92.3454
  292  233.8269  135.0000
  293  206.8320  173.5527
  294  173.5526  206.8320
  295  135.0000  233.8269
  296   92.3454  253.7170
  297   46.8850  265.8981
  298    0.0000  270.0000
  299  -46.8850  265.8981
  300  -92.3455  253.7170
  301 -135.0000  233.8269
  302 -173.5527  206.8320
  303 -206.8320  173.5526
  304 -233.8269  135.0000
  305 -253.7170   92.3454
  306 -265.8981   46.8850
  307 -270.0000    0.0000
  308 -265.8981  -46.8850
  309 -253.7170  -92.3455
  310 -233.8268 -135.0000
  311 -206.8320 -173.5527
  312 -173.5526 -206.8320
  313 -135.0000 -233.8269
  314  -92.3454 -253.7170
  315  -46.8850 -265.8981
  316    0.0000 -270.0000
  317   46.8850 -265.8981
  318   92.3455 -253.7170
  319  135.0000 -233.8268
  320  173.5527 -206.8320
  321  206.8320 -173.5526
  322  233.8269 -135.0000
  323  253.7170  -92.3454
  324  265.8981  -46.8850
  325  300.0000    0.0000
  326  295.4423   52.0945
  327  281.9078  102.6060
  328  259.8076  150.0000
  329  229.8133  192.8363
  330  192.8363  229.8133
  331  150.0000  259.8076
  332  102.6060  281.9078
  333   52.0944  295.4423
  334    0.0000  300.0000
  335  -52.0945  295.4423
  336 -102.6061  281.9078
  337 -150.0000  259.8076
  338 -192.8363  229.8133
  339 -229.8133  192.8363
  340 -259.8076  150.0000
  341 -281.9078  102.6060
  342 -295.4423   52.0944
  343 -300.0000    0.0000
  344 -295.4423  -52.0945
  345 -281.9078 -102.6061
  346 -259.8076 -150.0000
  347 -229.8133 -192.8363
  348 -192.8363 -229.8134
  349 -150.0000 -259.8076
  350 -102.6060 -281.9078
  351  -52.0944 -295.4423
  352    0.0000 -300.0000
  353   52.0945 -295.4423
  354  102.6061 -281.9078
  355  150.0000 -259.8076
  356  192.8363 -229.8133
  357  229.8134 -192.8362
  358  259.8076 -150.0000
  359  281.9078 -102.6060
  360  295.4423  -52.0944
  361    0.0000    0.0000
DEMAND_SECTION
    1     10
    2     30
    3     30
    4     10
    5     10
    6     30
    7     30
    8     10
    9     10
   10     30
   11     30
   12     10
   13     10
   14     30
   15     30
   16     10
   17     10
   18     30
   19     30
   20     10
   21     10
   22     30
   23     30
   24     10
   25     10
   26     30
   27     30
   28     10
   29     10
   30     30
   31     30
   32     10
   33     10
   34     30
   35     30
   36     10
   37     10
   38     30
   39     30
   40     10
   41     10
   42     30
   43     30
   44     10
   45     10
   46     30
   47     30
   48     10
   49     10
   50     30
   51     30
   52     10
   53     10
   54     30
   55     30
   56     10
   57     10
   58     30
   59     30
   60     10
   61     10
   62     30
   63     30
   64     10
   65     10
   66     30
   67     30
   68     10
   69     10
   70     30
   71     30
   72     10
   73     10
   74     30
   75     30
   76     10
   77     10
   78     30
   79     30
   80     10
   81     10
   82     30
   83     30
   84     10
   85     10
   86     30
   87     30
   88     10
   89     10
   90     30
   91     30
   92     10
   93     10
   94     30
   95     30
   96     10
   97     10
   98     30
   99     30
  100     10
  101     10
  102     30
  103     30
  104     10
  105     10
  106     30
  107     30
  108     10
  109     10
  110     30
  111     30
  112     10
  113     10
  114     30
  115     30
  116     10
  117     10
  118     30
  119     30
  120     10
  121     10
  122     30
  123     30
  124     10
  125     10
  126     30
  127     30
  128     10
  129     10
  130     30
  131     30
  132     10
  133     10
  134     30
  135     30
  136     10
  137     10
  138     30
  139     30
  140     10
  141     10
  142     30
  143     30
  144     10
  145     10
  146     30
  147     30
  148     10
  149     10
  150     30
  151     30
  152     10
  153     10
  154     30
  155     30
  156     10
  157     10
  158     30
  159     30
  160     10
  161     10
  162     30
  163     30
  164     10
  165     10
  166     30
  167     30
  168     10
  169     10
  170     30
  171     30
  172     10
  173     10
  174     30
  175     30
  176     10
  177     10
  178     30
  179     30
  180     10
  181     10
  182     30
  183     30
  184     10
  185     10
  186     30
  187     30
  188     10
  189     10
  190     30
  191     30
  192     10
  193     10
  194     30
  195     30
  196     10
  197     10
  198     30
  199     30
  200     10
  201     10
  202     30
  203     30
  204     10
  205     10
  206     30
  207     30
  208     10
  209     10
  210     30
  211     30
  212     10
  213     10
  214     30
  215     30
  216     10
  217     10
  218     30
  219     30
  220     10
  221     10
  222     30
  223     30
  224     10
  225     10
  226     30
  227     30
  228     10
  229     10
  230     30
  231     30
  232     10
  233     10
  234     30
  235     30
  236     10
  237     10
  238     30
  239     30
  240     10
  241     10
  242     30
  243     30
  244     10
  245     10
  246     30
  247     30
  248     10
  249     10
  250     30
  251     30
  252     10
  253     10
  254     30
  255     30
  256     10
  257     10
  258     30
  259     30
  260     10
  261     10
  262     30
  263     30
  264     10
  265     10
  266     30
  267     30
  268     10
  269     10
  270     30
  271     30
  272     10
  273     10
  274     30
  275     30
  276     10
  277     10
  278     30
  279     30
  280     10
  281     10
  282     30
  283     30
  284     10
  285     10
  286     30
  287     30
  288     10
  289     10
  290     30
  291     30
  292     10
  293     10
  294     30
  295     30
  296     10
  297     10
  298     30
  299     30
  300     10
  301     10
  302     30
  303     30
  304     10
  305     10
  306     30
  307     30
  308     10
  309     10
  310     30
  311     30
  312     10
  313     10
  314     30
  315     30
  316     10
  317     10
  318     30
  319     30
  320     10
  321     10
  322     30
  323     30
  324     10
  325     10
  326     30
  327     30
  328     10
  329     10
  330     30
  331     30
  332     10
  333     10
  334     30
  335     30
  336     10
  337     10
  338     30
  339     30
  340     10
  341     10
  342     30
  343     30
  344     10
  345     10
  346     30
  347     30
  348     10
  349     10
  350     30
  351     30
  352     10
  353     10
  354     30
  355     30
  356     10
  357     10
  358     30
  359     30
  360     10
  361      0
DEPOT_SECTION
  361
EOF
